c preprocessed version of 1g6x_graph, 52 vertices, 405 edges
p td 52 405
50 51
49 51
49 50
48 50
48 49
47 50
47 49
47 48
46 50
46 49
46 48
46 47
45 48
45 47
45 46
44 50
44 49
44 48
44 47
44 46
44 45
43 49
43 47
43 46
43 45
43 44
42 48
42 47
42 46
42 45
42 44
42 43
41 48
41 47
41 45
41 44
41 43
41 42
40 48
40 47
40 46
40 45
40 44
40 43
40 42
40 41
39 48
39 45
39 41
39 40
38 48
38 40
38 39
37 48
37 45
37 40
37 39
37 38
36 39
36 38
36 37
35 45
35 41
35 40
35 39
35 38
35 37
35 36
34 39
34 36
34 35
33 39
33 35
33 34
32 39
32 35
32 34
32 33
31 41
31 40
31 39
31 38
31 36
31 35
31 34
31 33
31 32
30 39
30 32
30 31
29 40
29 39
29 38
29 36
29 35
29 32
29 31
29 30
28 43
28 42
28 41
28 40
28 39
28 31
28 30
28 29
27 43
27 39
27 38
27 31
27 29
27 28
26 49
26 46
26 43
26 27
25 51
25 50
25 49
25 46
25 27
25 26
24 43
24 29
24 27
24 26
24 25
23 27
23 26
23 25
23 24
22 51
22 49
22 38
22 26
22 25
22 24
22 23
21 39
21 38
21 31
21 29
21 28
21 27
21 26
21 25
21 24
21 23
21 22
20 50
20 49
20 48
20 46
20 43
20 40
20 38
20 29
20 27
20 26
20 25
20 24
20 23
20 22
20 21
19 40
19 39
19 38
19 35
19 31
19 29
19 28
19 27
19 24
19 23
19 22
19 21
19 20
18 46
18 45
18 44
18 43
18 42
18 41
18 40
18 39
18 38
18 31
18 29
18 28
18 27
18 26
18 21
18 20
18 19
17 45
17 42
17 41
17 40
17 39
17 38
17 36
17 35
17 33
17 32
17 31
17 30
17 29
17 28
17 27
17 21
17 19
17 18
16 43
16 42
16 41
16 39
16 31
16 30
16 29
16 28
16 27
16 18
16 17
15 41
15 40
15 39
15 35
15 33
15 32
15 31
15 30
15 29
15 28
15 18
15 17
15 16
14 33
14 32
14 31
14 30
14 29
14 28
14 16
14 15
13 41
13 35
13 33
13 32
13 31
13 30
13 17
13 15
13 14
12 33
12 32
12 30
12 15
12 14
12 13
11 36
11 34
11 32
11 12
10 39
10 36
10 35
10 34
10 33
10 32
10 31
10 29
10 17
10 11
9 39
9 36
9 35
9 33
9 32
9 31
9 30
9 29
9 27
9 21
9 19
9 17
9 14
9 13
9 12
9 11
9 10
8 39
8 38
8 37
8 36
8 35
8 34
8 32
8 31
8 29
8 19
8 17
8 11
8 10
8 9
7 40
7 39
7 38
7 36
7 35
7 32
7 31
7 30
7 29
7 28
7 27
7 24
7 23
7 22
7 21
7 20
7 19
7 18
7 17
7 16
7 15
7 10
7 9
7 8
6 38
6 36
6 29
6 27
6 24
6 23
6 22
6 21
6 19
6 9
6 8
6 7
5 40
5 39
5 38
5 37
5 36
5 22
5 19
5 10
5 8
5 7
5 6
4 51
4 38
4 25
4 23
4 22
4 21
4 20
4 6
4 5
3 48
3 45
3 40
3 39
3 38
3 37
3 36
3 35
3 8
3 7
3 6
3 5
3 4
2 48
2 37
2 36
2 22
2 5
2 4
2 3
1 50
1 48
1 47
1 45
1 40
1 38
1 37
1 22
1 5
1 4
1 3
1 2
0 51
0 50
0 49
0 48
0 38
0 25
0 22
0 20
0 5
0 4
0 3
0 2
0 1
